h 1 2 0
596451577 3 0
368328500 4 0
773422574 -5 0
111946080 -4 0
361055613 -4 0
h 6 -5 0
h 7 -8 0
159534695 -4 0
h 5 -2 0
h 9 3 0
381828430 -5 0
h -9 -7 0
h 10 -6 0
246991458 11 0
185208683 12 0
522438661 3 0
h 8 10 0
h -3 1 0
h 13 -10 0
h -13 -1 0
590505892 4 0
